(set-option :produce-models true); benchmark generated from python API
(set-info :status unknown)
(declare-fun l_1_0_9 () Real)
(declare-fun l_1_0_8 () Real)
(declare-fun l_1_0_3 () Real)
(declare-fun l_1_0_2 () Real)
(declare-fun l_1_0_1 () Real)
(declare-fun _a_0_ () Real)
(declare-fun l_1_0_13 () Real)
(declare-fun l_1_0_11 () Real)
(declare-fun l_1_0_12 () Real)
(declare-fun l_1_0_10 () Real)
(declare-fun _a_1_ () Real)
(declare-fun l_1_0_7 () Real)
(declare-fun l_1_0_6 () Real)
(declare-fun l_1_0_5 () Real)
(declare-fun _a_2_ () Real)
(declare-fun l_1_0_4 () Real)
(declare-fun l_1_0_14 () Real)
(declare-fun _a_3_ () Real)
(declare-fun l_1_1_8 () Real)
(declare-fun l_1_1_5 () Real)
(declare-fun l_1_1_4 () Real)
(declare-fun l_1_1_15 () Real)
(declare-fun l_1_1_14 () Real)
(declare-fun l_1_1_13 () Real)
(declare-fun l_1_1_12 () Real)
(declare-fun l_1_1_11 () Real)
(declare-fun l_1_1_10 () Real)
(declare-fun l_1_1_1 () Real)
(declare-fun l_1_1_9 () Real)
(declare-fun l_1_1_7 () Real)
(declare-fun l_1_1_6 () Real)
(declare-fun l_1_1_3 () Real)
(declare-fun l_1_1_2 () Real)
(declare-fun l_1_1_17 () Real)
(declare-fun l_1_1_16 () Real)
(declare-fun l_1_1_20 () Real)
(declare-fun l_1_1_19 () Real)
(declare-fun l_1_1_18 () Real)
(declare-fun l_1_2_9 () Real)
(declare-fun l_1_2_8 () Real)
(declare-fun l_1_2_6 () Real)
(declare-fun l_1_2_5 () Real)
(declare-fun l_1_2_4 () Real)
(declare-fun l_1_2_2 () Real)
(declare-fun l_1_2_15 () Real)
(declare-fun l_1_2_14 () Real)
(declare-fun l_1_2_12 () Real)
(declare-fun l_1_2_10 () Real)
(declare-fun l_1_2_7 () Real)
(declare-fun l_1_2_3 () Real)
(declare-fun l_1_2_13 () Real)
(declare-fun l_1_2_11 () Real)
(declare-fun l_1_2_1 () Real)
(declare-fun l_1_2_19 () Real)
(declare-fun l_1_2_17 () Real)
(declare-fun l_1_2_18 () Real)
(declare-fun l_1_2_16 () Real)
(declare-fun l_1_2_20 () Real)
(assert
 (let ((?x51 (* l_1_0_9 l_1_0_9)))
 (let ((?x1366 (- (- (- (- (- _a_0_ l_1_0_1) l_1_0_2) l_1_0_3) l_1_0_8) ?x51)))
 (= ?x1366 0.0))))
(assert
 (let ((?x1315 (- (- _a_1_ (* (* 2.0 l_1_0_10) l_1_0_12)) (* (* 2.0 l_1_0_11) l_1_0_13))))
 (= ?x1315 0.0)))
(assert
 (let ((?x1290 (+ (- (- _a_2_ (* l_1_0_10 l_1_0_10)) (* l_1_0_11 l_1_0_11)) l_1_0_5)))
 (= (+ (+ ?x1290 l_1_0_6) l_1_0_7) 0.0)))
(assert
 (let ((?x1262 (* 4.0 l_1_0_4)))
 (let ((?x1014 (* l_1_0_14 l_1_0_14)))
 (let ((?x1261 (- (- (- _a_3_ (* l_1_0_12 l_1_0_12)) (* l_1_0_13 l_1_0_13)) ?x1014)))
 (= (+ (+ (+ (- ?x1261 ?x1262) l_1_0_5) l_1_0_6) l_1_0_7) 0.0)))))
(assert
 (= (- l_1_0_4) 0.0))
(assert
 (= (* (- 2.0) l_1_0_4) 0.0))
(assert
 (let ((?x1262 (* 4.0 l_1_0_4)))
 (= ?x1262 0.0)))
(assert
 (= (- l_1_0_4) 0.0))
(assert
 (let ((?x1262 (* 4.0 l_1_0_4)))
 (= ?x1262 0.0)))
(assert
 (let ((?x1171 (* 2.0 l_1_0_7)))
 (let ((?x48 (* 2.0 l_1_0_6)))
 (let ((?x1172 (- (- (- (* (* (- 2.0) l_1_0_12) l_1_0_9) (* 2.0 l_1_0_5)) ?x48) ?x1171)))
 (= ?x1172 0.0)))))
(assert
 (= (* (* (- 2.0) l_1_0_10) l_1_0_9) 0.0))
(assert
 (>= l_1_0_1 0.0))
(assert
 (>= l_1_0_2 0.0))
(assert
 (>= l_1_0_3 0.0))
(assert
 (>= l_1_0_4 0.0))
(assert
 (>= l_1_0_5 0.0))
(assert
 (>= l_1_0_6 0.0))
(assert
 (>= l_1_0_7 0.0))
(assert
 (>= l_1_0_8 0.0))
(assert
 (>= l_1_0_9 0.0))
(assert
 (>= l_1_0_11 0.0))
(assert
 (>= l_1_0_14 0.0))
(assert
 (let ((?x1078 (* l_1_1_15 l_1_1_15)))
 (let ((?x1072 (* _a_0_ l_1_1_9)))
 (let ((?x1068 (* _a_0_ l_1_1_6)))
 (let ((?x1069 (- (+ (* (- _a_0_) l_1_1_2) (* (* 1.0 _a_0_) l_1_1_3)) ?x1068)))
 (let ((?x708 (- (- (+ ?x1069 (* (* 1.0 _a_0_) l_1_1_7)) ?x1072) (* 1.0 l_1_1_1))))
 (let ((?x1076 (+ (+ (- (- ?x708 l_1_1_10) l_1_1_11) (* 1.0 l_1_1_12)) (* 1.0 l_1_1_13))))
 (let ((?x1018 (- (- (+ (- (- ?x1076 l_1_1_14) ?x1078) (* 1.0 l_1_1_4)) l_1_1_5) (* (* l_1_1_8 _a_0_) _a_0_))))
 (= (+ ?x1018 3.0) 0.0)))))))))
(assert
 (let ((?x861 (* l_1_1_17 l_1_1_17)))
 (let ((?x859 (* l_1_1_16 l_1_1_16)))
 (let ((?x857 (* _a_2_ l_1_1_9)))
 (let ((?x496 (* _a_2_ l_1_1_6)))
 (let ((?x905 (* _a_2_ l_1_1_2)))
 (let ((?x854 (+ (- (* (* (* (- 2.0) _a_0_) _a_2_) l_1_1_8) ?x905) (* (* 1.0 _a_2_) l_1_1_3))))
 (let ((?x860 (- (- (+ (- ?x854 ?x496) (* (* 1.0 _a_2_) l_1_1_7)) ?x857) ?x859)))
 (= (- (- ?x860 ?x861) 1.0) 0.0)))))))))
(assert
 (let ((?x728 (* l_1_1_20 l_1_1_20)))
 (let ((?x726 (* l_1_1_19 l_1_1_19)))
 (let ((?x723 (* l_1_1_18 l_1_1_18)))
 (let ((?x721 (* _a_3_ l_1_1_9)))
 (let ((?x717 (* _a_3_ l_1_1_6)))
 (let ((?x712 (* _a_3_ l_1_1_2)))
 (let ((?x716 (+ (- (* (* (* (- 2.0) _a_0_) _a_3_) l_1_1_8) ?x712) (* (* 1.0 _a_3_) l_1_1_3))))
 (let ((?x725 (- (- (+ (- ?x716 ?x717) (* (* 1.0 _a_3_) l_1_1_7)) ?x721) ?x723)))
 (= (- (- (- ?x725 ?x726) ?x728) 1.0) 0.0))))))))))
(assert
 (= (+ (* (* (- 2.0) l_1_1_15) l_1_1_18) 2.0) 0.0))
(assert
 (let ((?x25 (* _a_1_ l_1_1_9)))
 (let ((?x668 (* _a_1_ l_1_1_6)))
 (let ((?x26 (* _a_1_ l_1_1_2)))
 (let ((?x21 (+ (- (* (* (* (- 2.0) _a_0_) _a_1_) l_1_1_8) ?x26) (* (* 1.0 _a_1_) l_1_1_3))))
 (let ((?x347 (- (- (+ (- ?x21 ?x668) (* (* 1.0 _a_1_) l_1_1_7)) ?x25) (* (* 2.0 l_1_1_16) l_1_1_18))))
 (= (- ?x347 (* (* 2.0 l_1_1_17) l_1_1_19)) 0.0)))))))
(assert
 (let ((?x512 (* _a_1_ _a_1_)))
 (let ((?x516 (+ ?x512 (* (* 2.0 _a_2_) _a_3_))))
 (let ((?x494 (- l_1_1_8)))
 (= (* ?x494 ?x516) 0.0)))))
(assert
 (= (* (* (* (- 2.0) _a_1_) _a_2_) l_1_1_8) 0.0))
(assert
 (= (* (* (* (- 2.0) _a_1_) _a_3_) l_1_1_8) 0.0))
(assert
 (= (* (* (- l_1_1_8) _a_2_) _a_2_) 0.0))
(assert
 (= (* (* (- l_1_1_8) _a_3_) _a_3_) 0.0))
(assert
 (= (* (* (- 2.0) l_1_1_15) l_1_1_16) 0.0))
(assert
 (>= l_1_1_1 0.0))
(assert
 (>= l_1_1_2 0.0))
(assert
 (>= l_1_1_3 0.0))
(assert
 (>= l_1_1_4 0.0))
(assert
 (>= l_1_1_5 0.0))
(assert
 (>= l_1_1_6 0.0))
(assert
 (>= l_1_1_7 0.0))
(assert
 (>= l_1_1_8 0.0))
(assert
 (>= l_1_1_9 0.0))
(assert
 (>= l_1_1_10 0.0))
(assert
 (>= l_1_1_11 0.0))
(assert
 (>= l_1_1_12 0.0))
(assert
 (>= l_1_1_13 0.0))
(assert
 (>= l_1_1_14 0.0))
(assert
 (>= l_1_1_15 0.0))
(assert
 (>= l_1_1_17 0.0))
(assert
 (>= l_1_1_20 0.0))
(assert
 (let ((?x317 (* l_1_2_15 l_1_2_15)))
 (let ((?x309 (* (/ 25897921.0 2500000000000000.0) _a_3_)))
 (let ((?x306 (* (/ 1.0 10000.0) _a_2_)))
 (let ((?x368 (* (/ 5089.0 5000000000.0) _a_1_)))
 (let ((?x364 (* _a_0_ l_1_2_7)))
 (let ((?x360 (* _a_0_ l_1_2_13)))
 (let ((?x361 (- (- (* (- _a_0_) l_1_2_1) (* (* 1.0 _a_0_) l_1_2_11)) ?x360)))
 (let ((?x304 (+ (+ (- (- ?x361 (* (* 1.0 _a_0_) l_1_2_3)) ?x364) _a_0_) ?x368)))
 (let ((?x315 (- (- (+ (+ ?x304 ?x306) ?x309) (* (* l_1_2_10 _a_0_) _a_0_)) (* 1.0 l_1_2_12))))
 (let ((?x283 (- (- (- (- ?x315 l_1_2_14) ?x317) (* 1.0 l_1_2_2)) (* 1.0 l_1_2_4))))
 (let ((?x290 (- (- (- (- ?x283 l_1_2_5) (* 1.0 l_1_2_6)) l_1_2_8) l_1_2_9)))
 (= ?x290 0.0)))))))))))))
(assert
 (let ((?x164 (* (/ 207280909786429.0 10000000000000000.0) _a_3_)))
 (let ((?x201 (* (/ 1036521.0 50000000.0) _a_2_)))
 (let ((?x196 (* (/ 12497251686731.0 12500000000000.0) _a_1_)))
 (let ((?x170 (* _a_1_ l_1_2_7)))
 (let ((?x207 (* _a_1_ l_1_2_13)))
 (let ((?x158 (* _a_1_ l_1_2_1)))
 (let ((?x206 (- (- (* (* (* (- 2.0) _a_0_) _a_1_) l_1_2_10) ?x158) (* (* 1.0 _a_1_) l_1_2_11))))
 (let ((?x198 (+ (- (- (- ?x206 ?x207) (* (* 1.0 _a_1_) l_1_2_3)) ?x170) ?x196)))
 (let ((?x131 (- (- (+ (- ?x198 ?x201) ?x164) (* (* 2.0 l_1_2_16) l_1_2_18)) (* (* 2.0 l_1_2_17) l_1_2_19))))
 (= ?x131 0.0)))))))))))
(assert
 (let ((?x973 (* l_1_2_17 l_1_2_17)))
 (let ((?x971 (* l_1_2_16 l_1_2_16)))
 (let ((?x978 (* (/ 1112484251041.0 10000000000000000.0) _a_3_)))
 (let ((?x373 (* _a_2_ l_1_2_7)))
 (let ((?x377 (* _a_2_ l_1_2_13)))
 (let ((?x327 (* _a_2_ l_1_2_1)))
 (let ((?x381 (- (+ (* (* (* (- 2.0) _a_0_) _a_2_) l_1_2_10) (* (/ 527621.0 50000000.0) _a_1_)) ?x327)))
 (let ((?x372 (- (- (- ?x381 (* (* 1.0 _a_2_) l_1_2_11)) ?x377) (* (* 1.0 _a_2_) l_1_2_3))))
 (= (- (- (+ (+ (- ?x372 ?x373) _a_2_) ?x978) ?x971) ?x973) 0.0))))))))))
(assert
 (= (+ (* (/ 18721.0 1000000.0) _a_1_) (* (/ 19404709641.0 50000000000000.0) _a_3_)) 0.0))
(assert
 (= (+ (- (* (- (/ 51108943441.0 50000000000000.0)) _a_1_) (* (/ 18721.0 500000.0) _a_2_)) (* (/ 93562026018491.0 2500000000000000.0) _a_3_)) 0.0))
(assert
 (let ((?x1280 (- (+ (+ (* (/ 2054321.0 10000000000.0) _a_1_) (* (/ 1.0 50.0) _a_2_)) (* (/ 5274855369.0 2500000000000000.0) _a_3_)) (* (* 2.0 l_1_2_15) l_1_2_16))))
 (= ?x1280 0.0)))
(assert
 (= (- (+ (* (- (/ 37409384775463.0 2000000000000000.0)) _a_1_) (* (/ 221771169.0 250000000000.0) _a_2_)) (* (/ 31698152009291.0 25000000000000000.0) _a_3_)) 0.0))
(assert
 (let ((?x487 (* (/ 38758637278219.0 1250000000000000000.0) _a_3_)))
 (let ((?x147 (- (- (* (* (* (- 2.0) _a_1_) _a_2_) l_1_2_10) (* (/ 350475841.0 500000000000.0) _a_1_)) ?x487)))
 (= ?x147 0.0))))
(assert
 (let ((?x762 (- (- (+ (* (/ 14823540664547.0 500000000000000000.0) _a_1_) (* (/ 350475841.0 1000000000000.0) _a_2_)) (* (/ 700086027943143.0 1000000000000000000.0) _a_3_)) (* l_1_2_10 (+ (* _a_1_ _a_1_) (* (* 2.0 _a_2_) _a_3_))))))
 (= ?x762 0.0)))
(assert
 (let ((?x908 (* (/ 4736413.0 500000000000.0) _a_2_)))
 (let ((?x909 (- (- (* (* (* (- 2.0) _a_1_) _a_3_) l_1_2_10) (* (/ 104315317271.0 250000000000000000.0) _a_1_)) ?x908)))
 (= (+ ?x909 (* (/ 47339458409133.0 2500000000000000000.0) _a_3_)) 0.0))))
(assert
 (let ((?x389 (- (+ (- (* (/ 124973785829.0 12500000000000.0) _a_1_) (* (/ 5089.0 25000000.0) _a_2_)) (* (/ 40707679574001.0 200000000000000000.0) _a_3_)) (* (* 2.0 l_1_2_15) l_1_2_18))))
 (= ?x389 0.0)))
(assert
 (let ((?x568 (* l_1_2_20 l_1_2_20)))
 (let ((?x1061 (* l_1_2_19 l_1_2_19)))
 (let ((?x1064 (* l_1_2_18 l_1_2_18)))
 (let ((?x1062 (* (/ 12497347111777.0 12500000000000.0) _a_3_)))
 (let ((?x864 (* _a_3_ l_1_2_7)))
 (let ((?x550 (* _a_3_ l_1_2_13)))
 (let ((?x540 (* _a_3_ l_1_2_1)))
 (let ((?x556 (* (/ 27162921.0 250000000000.0) _a_2_)))
 (let ((?x558 (+ (- (* (* (* (- 2.0) _a_0_) _a_3_) l_1_2_10) (* (/ 50884213212401.0 5000000000000000.0) _a_1_)) ?x556)))
 (let ((?x876 (- (- (- (- ?x558 ?x540) (* (* 1.0 _a_3_) l_1_2_11)) ?x550) (* (* 1.0 _a_3_) l_1_2_3))))
 (= (- (- (- (+ (- ?x876 ?x864) ?x1062) ?x1064) ?x1061) ?x568) 0.0))))))))))))
(assert
 (= (+ (- (* (/ 63230023432961.0 250000000000000000.0) _a_1_) (* (/ 1287517.0 250000000000.0) _a_2_)) (* (/ 51495149512751.0 5000000000000000000.0) _a_3_)) 0.0))
(assert
 (let ((?x234 (- (- (+ (* (/ 977225403.0 500000000000000000.0) _a_1_) (* (/ 64009.0 1000000000000.0) _a_2_)) (* (/ 127977891313853.0 1000000000000000000000.0) _a_3_)) (* (* l_1_2_10 _a_3_) _a_3_))))
 (= ?x234 0.0)))
(assert
 (= (+ (* (/ 6561258219361.0 1000000000000000000.0) _a_1_) (* (/ 6393154170117.0 8000000000000000000.0) _a_3_)) 0.0))
(assert
 (= (- (* (- (/ 266011163319.0 1000000000000000000.0)) _a_1_) (* (/ 180197214150431.0 10000000000000000000000.0) _a_3_)) 0.0))
(assert
 (= (+ (* (/ 3594937467.0 1000000000000000000.0) _a_1_) (* (/ 22343206019563.0 125000000000000000000000.0) _a_3_)) 0.0))
(assert
 (= (- (* (- (/ 16194277.0 1000000000000000000.0)) _a_1_) (* (/ 82412675653.0 125000000000000000000000.0) _a_3_)) 0.0))
(assert
 (= (- (* (/ 350475841.0 1000000000000.0) _a_3_) (* (* l_1_2_10 _a_2_) _a_2_)) 0.0))
(assert
 (= (* (- (/ 6561258219361.0 500000000000000000.0)) _a_3_) 0.0))
(assert
 (= (* (/ 122833315124657.0 1000000000000000000000.0) _a_3_) 0.0))
(assert
 (= (* (- (/ 663999331799333.0 100000000000000000000000.0)) _a_3_) 0.0))
(assert
 (= (* (/ 67300824319707.0 500000000000000000000000.0) _a_3_) 0.0))
(assert
 (= (* (- (/ 303173059717.0 250000000000000000000000.0)) _a_3_) 0.0))
(assert
 (= (* (/ 4097152081.0 1000000000000000000000000.0) _a_3_) 0.0))
(assert
 (>= l_1_2_1 0.0))
(assert
 (>= l_1_2_2 0.0))
(assert
 (>= l_1_2_3 0.0))
(assert
 (>= l_1_2_4 0.0))
(assert
 (>= l_1_2_5 0.0))
(assert
 (>= l_1_2_6 0.0))
(assert
 (>= l_1_2_7 0.0))
(assert
 (>= l_1_2_8 0.0))
(assert
 (>= l_1_2_9 0.0))
(assert
 (>= l_1_2_10 0.0))
(assert
 (>= l_1_2_11 0.0))
(assert
 (>= l_1_2_12 0.0))
(assert
 (>= l_1_2_13 0.0))
(assert
 (>= l_1_2_14 0.0))
(assert
 (>= l_1_2_15 0.0))
(assert
 (>= l_1_2_17 0.0))
(assert
 (>= l_1_2_20 0.0))
(check-sat)
(get-model)